424 5
10 10 10 10 10 

0 0 0 0 0 0 5 2 14 26 38 50 
0 0 0 0 0 0 5 3 4 6 11 12 
3 0 0 0 2 0 4 10 9 7 5 
10 0 0 0 9 0 2 7 5 
5 0 0 0 8 0 1 8 
10 0 0 0 8 0 1 7 
6 0 0 0 8 0 2 13 114 
8 0 0 0 9 0 1 13 
8 0 0 0 3 0 1 13 
10 0 0 0 10 0 1 13 
10 0 0 0 8 0 1 13 
8 0 0 0 10 0 1 13 
0 0 0 0 0 0 1 62 
0 0 0 0 0 0 4 15 16 17 20 
4 0 0 1 0 0 4 24 23 22 19 
3 0 0 7 0 0 5 24 23 21 18 383 
4 0 0 7 0 0 3 23 21 18 
2 0 0 10 0 0 1 22 
9 0 0 10 0 0 1 21 
9 0 0 5 0 0 1 21 
8 0 0 7 0 0 1 25 
5 0 0 9 0 0 1 25 
6 0 0 9 0 0 1 25 
10 0 0 10 0 0 1 25 
0 0 0 0 0 0 1 62 
0 0 0 0 0 0 3 27 29 30 
6 0 7 0 0 0 4 36 34 31 28 
7 0 3 0 0 0 2 35 33 
9 0 8 0 0 0 2 34 32 
7 0 9 0 0 0 2 33 32 
5 0 8 0 0 0 2 32 333 
9 0 9 0 0 0 1 37 
4 0 7 0 0 0 1 37 
2 0 7 0 0 0 1 37 
6 0 7 0 0 0 1 37 
7 0 10 0 0 0 1 37 
0 0 0 0 0 0 1 62 
0 0 0 0 0 0 4 39 40 41 42 
10 0 0 0 2 0 4 48 47 45 44 
4 0 0 0 10 0 3 48 46 43 
1 0 0 0 2 0 3 48 46 43 
1 0 0 0 8 0 1 43 
5 0 0 0 10 0 1 47 
5 0 0 0 9 0 1 46 
9 0 0 0 10 0 2 46 78 
7 0 0 0 10 0 1 49 
6 0 0 0 4 0 1 49 
1 0 0 0 10 0 1 49 
0 0 0 0 0 0 1 62 
0 0 0 0 0 0 7 51 52 53 55 56 57 60 
6 0 3 0 0 0 2 59 54 
8 0 8 0 0 0 2 59 54 
3 0 5 0 0 0 2 59 58 
4 0 10 0 0 0 1 58 
7 0 5 0 0 0 1 58 
5 0 6 0 0 0 2 58 389 
3 0 10 0 0 0 1 58 
6 0 8 0 0 0 1 61 
10 0 10 0 0 0 1 61 
6 0 10 0 0 0 1 61 
0 0 0 0 0 0 1 62 
0 0 0 0 0 0 5 63 75 87 99 111 
0 0 0 0 0 0 4 64 66 67 68 
2 0 0 0 0 4 4 73 72 71 65 
1 0 0 0 0 10 2 70 69 
3 0 0 0 0 9 2 72 70 
7 0 0 0 0 6 2 71 406 
1 0 0 0 0 3 1 69 
7 0 0 0 0 10 1 74 
8 0 0 0 0 8 1 74 
7 0 0 0 0 7 1 74 
10 0 0 0 0 10 1 74 
5 0 0 0 0 8 1 74 
0 0 0 0 0 0 1 123 
0 0 0 0 0 0 5 76 77 78 79 81 
3 0 0 0 0 3 2 83 80 
1 0 0 0 0 4 2 85 82 
4 0 0 0 0 8 2 83 82 
8 0 0 0 0 7 1 80 
2 0 0 0 0 10 1 82 
2 0 0 0 0 10 1 84 
8 0 0 0 0 10 1 86 
2 0 0 0 0 10 1 86 
9 0 0 0 0 7 2 86 296 
5 0 0 0 0 6 1 86 
0 0 0 0 0 0 1 123 
0 0 0 0 0 0 5 88 90 91 96 97 
6 0 0 4 0 0 4 93 92 89 192 
6 0 0 8 0 0 2 95 94 
9 0 0 6 0 0 2 93 92 
4 0 0 10 0 0 1 92 
4 0 0 8 0 0 1 98 
7 0 0 7 0 0 1 98 
1 0 0 9 0 0 1 98 
3 0 0 7 0 0 1 98 
9 0 0 8 0 0 1 98 
2 0 0 8 0 0 1 98 
0 0 0 0 0 0 1 123 
0 0 0 0 0 0 5 100 101 102 103 104 
1 3 0 0 0 0 2 106 105 
3 5 0 0 0 0 2 106 105 
9 8 0 0 0 0 2 106 105 
4 8 0 0 0 0 3 106 105 175 
5 10 0 0 0 0 2 106 105 
9 9 0 0 0 0 3 109 108 107 
7 9 0 0 0 0 2 108 107 
4 8 0 0 0 0 1 110 
1 5 0 0 0 0 1 110 
10 10 0 0 0 0 1 110 
0 0 0 0 0 0 1 123 
0 0 0 0 0 0 4 112 113 116 117 
2 0 0 0 5 0 3 121 115 114 
9 0 0 0 7 0 4 121 118 114 182 
5 0 0 0 9 0 2 120 119 
6 0 0 0 6 0 1 118 
2 0 0 0 10 0 1 119 
8 0 0 0 10 0 1 118 
10 0 0 0 7 0 1 122 
7 0 0 0 6 0 1 122 
5 0 0 0 5 0 1 122 
4 0 0 0 10 0 1 122 
0 0 0 0 0 0 1 123 
0 0 0 0 0 0 5 124 136 168 200 232 
0 0 0 0 0 0 4 125 126 127 128 
10 5 0 0 0 0 3 131 130 129 
1 7 0 0 0 0 3 131 130 129 
5 9 0 0 0 0 3 131 130 129 
6 5 0 0 0 0 3 131 130 381 
9 10 0 0 0 0 3 134 133 132 
1 9 0 0 0 0 2 134 132 
3 10 0 0 0 0 2 133 132 
2 4 0 0 0 0 1 135 
9 7 0 0 0 0 1 135 
5 9 0 0 0 0 1 135 
0 0 0 0 0 0 5 264 276 298 320 342 
0 0 0 0 0 0 6 137 138 139 140 143 166 
2 1 9 0 4 0 5 149 148 147 144 141 
7 8 8 0 6 0 5 165 147 144 141 272 
4 7 10 0 9 0 3 144 142 141 
5 8 4 0 7 0 3 150 147 141 
1 10 4 0 4 0 3 157 153 145 
3 9 5 0 9 0 4 163 149 148 146 
3 8 9 0 5 0 4 164 149 148 146 
5 10 8 0 7 0 2 157 146 
7 8 10 0 6 0 1 146 
7 9 10 0 10 0 5 162 161 160 156 152 
8 10 7 0 6 0 3 159 157 151 
4 5 9 0 8 0 4 161 160 159 152 
7 8 7 0 7 0 3 161 156 152 
10 10 3 0 10 0 4 162 160 159 154 
3 9 9 0 5 0 1 152 
5 9 10 0 10 0 1 154 
2 8 6 0 4 0 2 163 159 
5 5 9 0 5 0 1 155 
5 7 8 0 10 0 1 158 
2 4 4 0 8 0 1 159 
1 5 9 0 8 0 1 163 
6 5 2 0 10 0 1 167 
7 10 3 0 10 0 1 167 
5 7 9 0 7 0 1 167 
6 4 10 0 4 0 1 167 
10 6 8 0 9 0 1 167 
7 9 9 0 10 0 1 167 
4 10 10 0 9 0 1 167 
3 8 8 0 8 0 1 167 
7 8 8 0 10 0 1 167 
0 0 0 0 0 0 1 424 
0 0 0 0 0 0 6 169 170 171 173 176 198 
6 0 8 10 0 4 4 185 177 174 172 
3 0 7 6 0 2 6 194 193 192 185 179 175 
7 0 10 10 0 10 6 197 194 190 186 184 177 
4 0 6 8 0 10 4 193 191 186 175 
7 0 7 7 0 10 4 196 194 179 175 
6 0 10 4 0 8 3 189 180 178 
1 0 5 4 0 7 2 189 178 
4 0 7 10 0 10 4 195 185 183 180 
3 0 6 3 0 8 4 193 192 189 181 
8 0 7 9 0 6 3 190 184 181 
9 0 6 10 0 6 1 181 
7 0 8 5 0 9 2 191 184 
3 0 8 7 0 9 1 182 
7 0 10 10 0 4 1 183 
7 0 8 6 0 10 1 187 
7 0 4 6 0 6 1 188 
7 0 8 7 0 9 1 191 
10 0 10 6 0 7 1 192 
2 0 9 3 0 10 1 199 
9 0 6 8 0 10 1 199 
4 0 7 9 0 5 1 199 
9 0 8 10 0 10 1 199 
6 0 6 8 0 9 1 199 
1 0 6 8 0 10 1 199 
1 0 10 10 0 6 1 199 
7 0 4 10 0 9 1 199 
1 0 8 6 0 7 1 199 
6 0 9 9 0 6 1 199 
5 0 10 9 0 2 1 199 
10 0 7 7 0 6 1 199 
0 0 0 0 0 0 1 424 
0 0 0 0 0 0 6 201 202 203 204 205 216 
5 2 0 4 5 0 4 218 208 207 206 
4 7 0 4 8 0 5 218 214 212 207 206 
6 4 0 4 7 0 3 212 207 206 
8 4 0 7 9 0 3 217 208 206 
1 6 0 8 10 0 5 221 220 217 213 208 
1 8 0 6 6 0 3 213 210 209 
2 10 0 9 5 0 2 217 211 
7 6 0 6 5 0 2 214 212 
10 6 0 8 6 0 2 220 215 
10 10 0 6 10 0 2 220 215 
7 6 0 9 7 0 2 220 215 
3 7 0 2 10 0 1 215 
4 9 0 8 7 0 1 215 
5 10 0 8 7 0 1 215 
2 8 0 10 10 0 6 230 229 228 225 224 219 
2 9 0 10 10 0 3 230 225 222 
1 10 0 7 10 0 2 228 219 
2 8 0 7 9 0 4 230 228 227 224 
8 10 0 10 3 0 2 226 222 
5 7 0 6 9 0 3 229 228 226 
4 5 0 10 9 0 3 229 228 226 
1 10 0 9 6 0 1 223 
6 9 0 4 4 0 1 227 
7 9 0 10 9 0 1 226 
8 10 0 10 6 0 1 226 
7 10 0 10 7 0 1 231 
9 9 0 9 9 0 1 231 
7 7 0 5 7 0 1 231 
2 4 0 9 5 0 1 231 
6 5 0 10 10 0 1 231 
0 0 0 0 0 0 1 424 
0 0 0 0 0 0 7 233 235 237 239 242 261 262 
5 7 0 4 4 0 4 254 246 236 234 
2 10 0 10 8 0 3 253 247 238 
5 5 0 3 7 0 5 260 259 255 250 240 
1 6 0 10 5 0 4 257 256 250 240 
9 9 0 10 1 0 6 255 254 251 250 249 241 
5 9 0 8 9 0 2 250 240 
6 7 0 5 6 0 6 258 255 252 250 248 246 
5 6 0 10 8 0 3 251 245 241 
2 6 0 8 8 0 1 243 
9 10 0 7 8 0 2 256 254 
1 8 0 6 5 0 1 244 
9 6 0 8 7 0 1 248 
1 10 0 5 10 0 1 249 
2 10 0 8 9 0 1 253 
10 6 0 10 10 0 1 252 
4 8 0 4 9 0 1 263 
2 6 0 9 10 0 1 263 
3 10 0 4 8 0 1 263 
7 6 0 9 8 0 1 263 
8 8 0 9 9 0 1 263 
1 10 0 8 9 0 1 263 
5 9 0 10 7 0 1 263 
4 4 0 6 9 0 1 263 
10 6 0 10 9 0 1 263 
9 8 0 7 10 0 1 263 
8 9 0 10 6 0 1 263 
7 10 0 9 7 0 1 263 
9 6 0 6 3 0 1 263 
2 4 0 4 6 0 1 263 
3 6 0 8 10 0 1 263 
0 0 0 0 0 0 1 424 
0 0 0 0 0 0 4 265 266 267 268 
3 3 0 0 0 0 2 270 269 
1 9 0 0 0 0 2 270 269 
10 8 0 0 0 0 2 270 269 
7 6 0 0 0 0 2 270 269 
5 9 0 0 0 0 4 274 273 272 271 
8 6 0 0 0 0 4 274 273 272 271 
8 6 0 0 0 0 1 275 
5 10 0 0 0 0 1 275 
8 8 0 0 0 0 1 275 
5 10 0 0 0 0 1 275 
0 0 0 0 0 0 5 364 376 388 400 412 
0 0 0 0 0 0 16 277 282 283 284 285 286 287 288 289 290 291 292 293 294 295 296 
1 0 2 0 0 1 1 278 
4 0 5 0 0 5 1 279 
10 0 8 0 0 8 1 280 
3 0 6 0 0 3 1 281 
10 0 9 0 0 10 1 297 
2 0 8 0 0 9 1 297 
1 0 9 0 0 7 1 297 
2 0 8 0 0 7 1 297 
7 0 5 0 0 8 1 297 
2 0 10 0 0 6 1 297 
4 0 7 0 0 7 1 297 
2 0 10 0 0 9 1 297 
8 0 5 0 0 10 1 297 
6 0 10 0 0 10 1 297 
5 0 9 0 0 9 1 297 
1 0 7 0 0 10 1 297 
2 0 8 0 0 8 1 297 
3 0 9 0 0 7 1 297 
3 0 6 0 0 9 1 297 
3 0 9 0 0 7 1 297 
0 0 0 0 0 0 1 424 
0 0 0 0 0 0 9 299 300 302 303 304 305 310 317 318 
3 0 7 0 0 4 4 316 315 313 301 
10 0 10 0 0 7 5 315 314 309 308 307 
5 0 8 0 0 8 2 312 306 
3 0 4 0 0 10 3 313 312 311 
3 0 9 0 0 5 2 314 307 
3 0 10 0 0 7 2 312 307 
7 0 8 0 0 8 2 308 307 
2 0 5 0 0 8 1 307 
6 0 5 0 0 6 1 311 
3 0 10 0 0 6 1 311 
1 0 7 0 0 10 1 311 
3 0 4 0 0 10 1 313 
5 0 9 0 0 9 1 319 
1 0 9 0 0 5 1 319 
9 0 10 0 0 9 1 319 
10 0 4 0 0 10 1 319 
10 0 7 0 0 5 1 319 
1 0 10 0 0 4 1 319 
10 0 4 0 0 9 1 319 
2 0 10 0 0 10 1 319 
0 0 0 0 0 0 1 424 
0 0 0 0 0 0 7 321 322 324 325 326 339 340 
9 9 3 0 0 0 5 338 335 330 328 323 
5 5 5 0 0 0 6 337 335 334 331 330 328 
8 7 6 0 0 0 3 337 334 327 
4 8 9 0 0 0 4 337 335 334 328 
2 10 7 0 0 0 4 335 334 330 329 
5 10 8 0 0 0 4 335 334 333 328 
2 10 6 0 0 0 3 336 333 329 
1 5 7 0 0 0 1 329 
4 8 6 0 0 0 1 332 
2 5 9 0 0 0 1 333 
5 10 10 0 0 0 1 336 
5 4 8 0 0 0 1 341 
9 6 10 0 0 0 1 341 
8 5 10 0 0 0 1 341 
7 5 6 0 0 0 1 341 
3 10 4 0 0 0 1 341 
5 10 10 0 0 0 1 341 
2 7 8 0 0 0 1 341 
1 9 8 0 0 0 1 341 
2 7 10 0 0 0 1 341 
0 0 0 0 0 0 1 424 
0 0 0 0 0 0 4 343 344 345 346 
8 4 0 0 0 4 5 355 353 351 350 349 
10 8 0 0 0 9 4 353 349 348 347 
10 3 0 0 0 9 3 353 349 347 
7 10 0 0 0 9 3 351 348 347 
10 10 0 0 0 6 4 356 355 354 352 
10 5 0 0 0 4 4 356 355 354 352 
7 10 0 0 0 7 3 356 354 352 
7 9 0 0 0 10 2 354 352 
4 7 0 0 0 10 4 362 358 357 356 
5 10 0 0 0 9 5 362 361 360 358 357 
10 9 0 0 0 4 5 362 361 360 358 357 
8 3 0 0 0 6 3 361 360 357 
7 8 0 0 0 10 3 362 358 357 
4 9 0 0 0 10 3 361 360 359 
4 7 0 0 0 8 1 359 
9 10 0 0 0 5 1 359 
2 10 0 0 0 6 1 363 
7 7 0 0 0 5 1 363 
7 5 0 0 0 9 1 363 
4 6 0 0 0 10 1 363 
0 0 0 0 0 0 1 424 
0 0 0 0 0 0 5 365 366 367 369 370 
7 0 2 0 0 0 2 374 368 
5 0 5 0 0 0 2 372 368 
7 0 8 0 0 0 2 372 368 
7 0 7 0 0 0 1 371 
10 0 10 0 0 0 1 373 
2 0 10 0 0 0 1 371 
7 0 6 0 0 0 1 375 
2 0 9 0 0 0 1 375 
10 0 8 0 0 0 1 375 
9 0 10 0 0 0 1 375 
0 0 0 0 0 0 1 424 
0 0 0 0 0 0 6 377 380 381 384 385 386 
4 0 0 0 3 0 3 383 379 378 
7 0 0 0 8 0 1 382 
1 0 0 0 8 0 1 382 
8 0 0 0 3 0 1 382 
7 0 0 0 10 0 1 382 
9 0 0 0 9 0 1 387 
2 0 0 0 9 0 1 387 
3 0 0 0 10 0 1 387 
2 0 0 0 5 0 1 387 
7 0 0 0 10 0 1 387 
0 0 0 0 0 0 1 424 
0 0 0 0 0 0 4 389 390 392 398 
4 5 0 0 0 0 3 397 396 395 
3 6 0 0 0 0 1 391 
9 7 0 0 0 0 1 393 
3 6 0 0 0 0 1 394 
2 8 0 0 0 0 1 399 
8 10 0 0 0 0 1 399 
2 8 0 0 0 0 1 399 
2 9 0 0 0 0 1 399 
10 10 0 0 0 0 1 399 
9 6 0 0 0 0 1 399 
0 0 0 0 0 0 1 424 
0 0 0 0 0 0 5 401 402 404 405 410 
3 6 0 0 0 0 4 409 408 407 406 
2 9 0 0 0 0 1 403 
5 3 0 0 0 0 1 407 
6 8 0 0 0 0 1 406 
6 10 0 0 0 0 1 406 
7 8 0 0 0 0 1 411 
6 10 0 0 0 0 1 411 
1 5 0 0 0 0 1 411 
5 7 0 0 0 0 1 411 
3 9 0 0 0 0 1 411 
0 0 0 0 0 0 1 424 
0 0 0 0 0 0 5 413 415 416 421 422 
9 3 0 0 0 0 2 420 414 
8 9 0 0 0 0 2 419 418 
9 1 0 0 0 0 1 417 
9 9 0 0 0 0 1 417 
7 9 0 0 0 0 1 423 
1 10 0 0 0 0 1 423 
10 10 0 0 0 0 1 423 
1 9 0 0 0 0 1 423 
8 7 0 0 0 0 1 423 
9 8 0 0 0 0 1 423 
0 0 0 0 0 0 1 424 
0 0 0 0 0 0 0 
